TYPE : Vertex Cover
DIMENSION: 26
EDGE_DATA_SECTION:
0 9
0 14
0 15
0 16
0 19
0 21
0 24
1 2
1 3
1 15
1 16
2 7
2 12
2 19
2 21
3 10
3 11
3 12
3 14
3 16
3 17
3 18
3 19
3 21
3 25
4 5
4 6
4 9
4 11
4 12
4 16
4 17
4 19
4 23
4 24
5 6
5 17
5 19
5 24
5 25
6 7
6 15
6 20
6 22
6 23
7 8
7 9
7 17
7 20
7 25
8 20
8 23
9 12
9 15
9 19
9 21
9 25
10 16
10 17
10 18
10 22
10 24
10 25
11 19
12 15
12 20
12 22
13 15
13 16
13 21
13 24
14 16
14 18
14 22
14 23
15 24
15 25
16 17
16 20
17 24
18 19
18 24
20 25
22 23
23 24
23 25
-1
VERTEX_DEGREE:
7.0 4.0 5.0 11.0 10.0 6.0 7.0 7.0 3.0 8.0 7.0 3.0 7.0 4.0 6.0 8.0 9.0 7.0 5.0 8.0 6.0 5.0 5.0 7.0 9.0 8.0
VERTEX_COVER:
2 3 4 5 7 9 10 14 15 16 19 20 21 22 23 24
EOF
